HUN,8,6,304
2,24,1,22,3,27,5,23,0,29,4,29
4,26,3,30,2,22,1,27,0,29,5,29
5,21,2,30,4,28,1,25,3,23,0,30
4,22,5,27,2,28,1,24,3,29,0,29
1,30,0,22,3,28,5,27,2,24,4,27
1,24,4,22,2,25,5,22,0,25,3,21
1,27,5,27,2,30,4,23,0,25,3,23
0,21,3,27,1,30,5,26,4,28,2,22
